26
1 0 51
2 0 26
2 1 48
3 0 12
3 1 58
3 2 39
4 0 52
4 1 56
4 2 58
4 3 9
5 0 36
5 1 39
5 2 34
5 3 36
5 4 7
6 0 44
6 1 6
6 2 43
6 3 45
6 4 56
6 5 49
7 0 24
7 1 2
7 2 30
7 3 46
7 4 37
7 5 21
7 6 9
8 0 8
8 1 14
8 2 47
8 3 28
8 4 45
8 5 23
8 6 4
8 7 21
9 0 9
9 1 6
9 2 14
9 3 17
9 4 24
9 5 25
9 6 47
9 7 54
9 8 48
10 0 17
10 1 2
10 2 19
10 3 34
10 4 42
10 5 21
10 6 25
10 7 51
10 8 11
10 9 16
11 0 58
11 1 29
11 2 20
11 3 29
11 4 54
11 5 28
11 6 4
11 7 51
11 8 38
11 9 44
11 10 5
12 0 5
12 1 7
12 2 24
12 3 12
12 4 58
12 5 28
12 6 21
12 7 50
12 8 34
12 9 37
12 10 27
12 11 2
13 0 20
13 1 58
13 2 6
13 3 7
13 4 47
13 5 20
13 6 22
13 7 39
13 8 42
13 9 34
13 10 41
13 11 4
13 12 48
14 0 44
14 1 57
14 2 21
14 3 14
14 4 33
14 5 26
14 6 3
14 7 6
14 8 20
14 9 47
14 10 22
14 11 48
14 12 17
14 13 32
15 0 32
15 1 2
15 2 10
15 3 58
15 4 48
15 5 23
15 6 55
15 7 4
15 8 26
15 9 26
15 10 12
15 11 34
15 12 51
15 13 24
15 14 6
16 0 27
16 1 48
16 2 38
16 3 7
16 4 11
16 5 52
16 6 2
16 7 11
16 8 39
16 9 5
16 10 28
16 11 41
16 12 2
16 13 7
16 14 31
16 15 38
17 0 1
17 1 41
17 2 39
17 3 41
17 4 16
17 5 4
17 6 30
17 7 58
17 8 24
17 9 7
17 10 28
17 11 22
17 12 48
17 13 31
17 14 20
17 15 36
17 16 30
18 0 16
18 1 37
18 2 26
18 3 25
18 4 25
18 5 14
18 6 17
18 7 11
18 8 27
18 9 11
18 10 46
18 11 8
18 12 8
18 13 43
18 14 47
18 15 52
18 16 44
18 17 8
19 0 22
19 1 9
19 2 36
19 3 45
19 4 53
19 5 19
19 6 32
19 7 40
19 8 11
19 9 3
19 10 7
19 11 7
19 12 33
19 13 1
19 14 53
19 15 19
19 16 9
19 17 16
19 18 45
20 0 23
20 1 36
20 2 16
20 3 5
20 4 39
20 5 14
20 6 11
20 7 29
20 8 28
20 9 26
20 10 1
20 11 31
20 12 50
20 13 29
20 14 11
20 15 1
20 16 36
20 17 23
20 18 50
20 19 21
21 0 58
21 1 10
21 2 33
21 3 6
21 4 39
21 5 58
21 6 9
21 7 13
21 8 55
21 9 53
21 10 22
21 11 56
21 12 14
21 13 54
21 14 25
21 15 32
21 16 19
21 17 58
21 18 50
21 19 48
21 20 55
22 0 56
22 1 35
22 2 25
22 3 43
22 4 36
22 5 12
22 6 36
22 7 28
22 8 22
22 9 34
22 10 29
22 11 12
22 12 10
22 13 39
22 14 2
22 15 48
22 16 36
22 17 47
22 18 44
22 19 56
22 20 42
22 21 57
23 0 27
23 1 22
23 2 19
23 3 56
23 4 26
23 5 15
23 6 20
23 7 14
23 8 23
23 9 4
23 10 28
23 11 49
23 12 30
23 13 43
23 14 41
23 15 5
23 16 46
23 17 29
23 18 6
23 19 18
23 20 24
23 21 39
23 22 29
24 0 18
24 1 44
24 2 2
24 3 4
24 4 12
24 5 26
24 6 44
24 7 6
24 8 38
24 9 18
24 10 51
24 11 16
24 12 45
24 13 24
24 14 54
24 15 10
24 16 17
24 17 23
24 18 11
24 19 7
24 20 40
24 21 46
24 22 33
24 23 22
25 0 15
25 1 58
25 2 8
25 3 19
25 4 36
25 5 13
25 6 49
25 7 6
25 8 40
25 9 30
25 10 56
25 11 55
25 12 36
25 13 34
25 14 17
25 15 14
25 16 56
25 17 12
25 18 58
25 19 46
25 20 52
25 21 16
25 22 43
25 23 1
25 24 39
